PROBLEM NAME: eil51_n7
KNAPSACK DATA TYPE: multiple strongly correlated
DIMENSION: 7
NUMBER OF ITEMS: 60
CAPACITY OF KNAPSACK: 28806
MIN SPEED: 0.1
MAX SPEED: 1
RENTING RATIO: 57.45
EDGE_WEIGHT_TYPE: CEIL_2D
NODE_COORD_SECTION	(INDEX, X, Y):
1	42	57
2	7	38
3	30	48
4	45	35
5	5	6
6	56	37
7	30	40
ITEMS SECTION	(INDEX, PROFIT, WEIGHT, ASSIGNED NODE NUMBER):
1	1254	954	3
2	1195	995	3
3	1188	988	3
4	1171	971	3
5	1139	939	3
6	1125	925	3
7	1103	903	3
8	1099	899	3
9	1098	898	3
10	1091	891	3
11	1087	887	7
12	1067	867	7
13	1032	832	7
14	1032	832	7
15	1029	829	7
16	1008	808	7
17	1001	801	7
18	927	727	7
19	916	716	7
20	910	710	7
21	895	695	2
22	885	685	2
23	832	632	2
24	803	603	2
25	802	602	2
26	772	572	2
27	768	468	2
28	750	450	2
29	748	548	2
30	739	539	2
31	737	537	5
32	718	518	5
33	714	514	5
34	648	348	5
35	645	445	5
36	634	434	5
37	631	431	5
38	606	406	5
39	583	383	5
40	583	383	5
41	577	377	4
42	543	343	4
43	508	308	4
44	507	307	4
45	492	192	4
46	481	281	4
47	472	272	4
48	444	244	4
49	439	239	4
50	438	138	4
51	418	218	6
52	412	212	6
53	365	165	6
54	347	147	6
55	333	133	6
56	322	122	6
57	316	116	6
58	311	111	6
59	306	106	6
60	291	91	6
